(set-info :Origin "This instance was generated by: BanditFuzz-- an RL fuzzer for SMT solvers" )
(set-info :Author "Joe Scott, Fed Mora, Vijay Ganesh" )
(set-info :Contact "Joe Scott, joseph.scott@uwaterloo.ca")
(set-logic QF_BV)
(declare-const bool_0 Bool)
(declare-const bool_1 Bool)
(declare-const bool_2 Bool)
(declare-const bool_3 Bool)
(declare-const bool_4 Bool)
(declare-const bv_0 (_ BitVec 32))
(declare-const bv_1 (_ BitVec 32))
(declare-const bv_2 (_ BitVec 32))
(declare-const bv_3 (_ BitVec 32))
(declare-const bv_4 (_ BitVec 32))
(assert (bvsgt (bvmul (bvor bv_0 #xec245e1f ) (bvshl #x4b54ae60  bv_0)) (bvmul (bvurem #x33267e1b  bv_4) (bvudiv #x80788db6  #xce4102b0 ))))
(assert (bvsge (bvand (bvand bv_2 #x0351c5a2 ) (bvsrem bv_1 bv_2)) (bvxor (bvsdiv #xee124768  #x9d924316 ) (bvadd bv_1 #x9be1a6b3 ))))
(assert (bvuge (bvudiv (bvlshr bv_4 #x8f34f226 ) (bvnand bv_4 #x4ce4159e )) (bvmul (bvashr #xa0791101  bv_0) (bvsdiv bv_0 #xf259b8bc ))))
(assert (xor (or (bvuge #x521ebdeb  bv_3) (xor bool_1 true)) (bvugt (bvashr #x2ae021da  bv_4) (bvsrem #xe1f9cb43  #x7c57070f ))))
(assert (not (=> (bvsge #xcddc10c1  #xbe287576 ) (bvsle bv_1 bv_0))))
(check-sat)
(exit)
